/*********************************************
 * OPL 12.6.0.0 Data
 * Author: Adrian Rodriguez Bazaga, Pau Rodriguez Esmerats
 * Creation Date: 06/12/2017 at 23:03:07
 *********************************************/

nNurses=257;
maxConsec=2;
maxPresence=7;
maxHours=5;
minHours=1;
hours=24;
demand= [38 39 72 65 39 72 65 40 52 29 4 5 9 7 9 6 7 5 5 2 38 70 32 60  ];
